<instance format="XCSP3" type="CSP">
  <variables>
    <var id="x0"> 6 8 </var>
    <var id="x1"> 1 4 6 8 </var>
    <var id="x2"> 1 4 6 8 11 </var>
    <var id="x3"> 4 6 8 11 </var>
    <var id="x4"> 3 4 6..8 </var>
    <var id="x5"> 1 4 6 8 </var>
    <var id="x6"> 3 7 8 </var>
    <var id="x7"> 0 6 9 13 </var>
    <var id="x8"> 1 4 9 13 </var>
    <var id="x9"> 1 4 6 14 </var>
    <var id="x10"> 4 6 9 </var>
    <var id="x11"> 6 9 </var>
    <var id="x12"> 1 4 6 </var>
    <var id="x13"> 0 9 14 </var>
    <var id="x14"> 2 6 10 </var>
    <var id="x15"> 3 5 8 </var>
    <var id="x16"> 6 8 12 </var>
    <var id="x17"> 3 5 6 10 12 </var>
    <var id="x18"> 2 8 10 12 </var>
    <var id="x19"> 6 8 12 </var>
    <var id="x20"> 5 6 10 12 </var>
    <var id="x21"> 7 8 12 </var>
    <var id="x22"> 6 8 9 11 12 </var>
    <var id="x23"> 6 8..12 </var>
    <var id="x24"> 6..10 </var>
    <var id="x25"> 7 9 11 12 </var>
    <var id="x26"> 6 7 11 </var>
    <var id="x27"> 6 9..12 </var>
    <var id="x28"> 8 10 13 14 </var>
    <var id="x29"> 8 10 11 </var>
    <var id="x30"> 2 11 13 </var>
    <var id="x31"> 2 8 10 11 13 </var>
    <var id="x32"> 1 2 11 </var>
    <var id="x33"> 8 10 14 </var>
    <var id="x34"> 1 10 11 </var>
    <var id="x35"> 2 6 9 13 </var>
    <var id="x36"> 6 13 </var>
    <var id="x37"> 3 9 13 </var>
    <var id="x38"> 3 6 9 </var>
    <var id="x39"> 3 6 9 11 12 </var>
    <var id="x40"> 6 12 13 </var>
    <var id="x41"> 3 9 </var>
    <var id="x42"> 1 4 9 </var>
    <var id="x43"> 1 4 6 12 14 </var>
    <var id="x44"> 1 4 6 9 12 </var>
    <var id="x45"> 4 9 12 </var>
    <var as="x43" id="x46"/>
    <var id="x47"> 1 4 6 </var>
    <var id="x48"> 1 6 9 10 12 </var>
    <var id="x49"> 5 6 8 </var>
    <var id="x50"> 1 4 8 </var>
    <var id="x51"> 1 4 5 8 9 </var>
    <var id="x52"> 1 4 6 8 9 11 </var>
    <var id="x53"> 4..6 8 9 11 </var>
    <var id="x54"> 4 6 8 9 </var>
    <var id="x55"> 4 9 11 </var>
    <var id="x56"> 0 6 10 </var>
    <var id="x57"> 1 4 </var>
    <var id="x58"> 6 10 12 </var>
    <var id="x59"> 4 7 12 </var>
    <var id="x60"> 4 10 12 </var>
    <var id="x61"> 1 4 6 7 </var>
    <var id="x62"> 1 6 10 12 </var>
    <var id="x63"> 6 7 9 13 </var>
    <var id="x64"> 5 6 8 13 </var>
    <var id="x65"> 7 8 12 </var>
    <var id="x66"> 5 6 8 12 </var>
    <var id="x67"> 6 8 12 13 </var>
    <var id="x68"> 7..9 </var>
    <var id="x69"> 5 6 9 12 </var>
    <var id="x70"> 6 7 </var>
    <var id="x71"> 3 4 7 12 </var>
    <var id="x72"> 4 6 11 12 </var>
    <var id="x73"> 3 4 6 7 </var>
    <var id="x74"> 3 5 6 11 12 </var>
    <var id="x75"> 4 11 12 </var>
    <var id="x76"> 5 6 11 12 </var>
    <var id="x77"> 0 2 9 10 </var>
    <var id="x78"> 2 4 8 </var>
    <var id="x79"> 4 5 8 9 </var>
    <var id="x80"> 4 5 8 </var>
    <var id="x81"> 4 5 8..10 </var>
    <var id="x82"> 5 9 10 </var>
    <var id="x83"> 2 4 8 10 </var>
    <var id="x84"> 5 8 10 </var>
    <var id="x85"> 1 3 4 8 </var>
    <var id="x86"> 1 4 5 8 </var>
    <var id="x87"> 4 5 8..10 </var>
    <var id="x88"> 3 4 8..10 </var>
    <var id="x89"> 4 8 10 </var>
    <var id="x90"> 1 4 8 </var>
    <var id="x91"> 4 7 8 12 </var>
    <var id="x92"> 4 8 9 12 </var>
    <var id="x93"> 4 5 8..10 12 </var>
    <var id="x94"> 4 7..10 </var>
    <var id="x95"> 4 7 9 12 13 </var>
    <var id="x96"> 4 8 10 12 13 </var>
    <var id="x97"> 4 5 7 </var>
    <var id="x98"> 7..10 </var>
    <var id="x99"> 2 13 </var>
    <var id="x100"> 4 8 12 14 </var>
    <var id="x101"> 11 12 </var>
    <var id="x102"> 2 4 11..13 </var>
    <var id="x103"> 4 8 12..14 </var>
    <var id="x104"> 2 4 11 </var>
    <var id="x105"> 8 14 </var>
  </variables>
  <constraints>
    <group>
      <allDifferent> %... </allDifferent>
      <args> x0 x1 x2 x3 x4 x5 x6 </args>
      <args> x7 x8 x9 x10 x11 x12 x13 </args>
      <args> x14 x15 x16 x17 x18 x19 x20 </args>
      <args> x21 x22 x23 x24 x25 x26 x27 </args>
      <args> x28 x29 x30 x31 x32 x33 x34 </args>
      <args> x35 x36 x37 x38 x39 x40 x41 </args>
      <args> x42 x43 x44 x45 x46 x47 x48 </args>
      <args> x49 x50 x51 x52 x53 x54 x55 </args>
      <args> x56 x57 x58 x59 x60 x61 x62 </args>
      <args> x63 x64 x65 x66 x67 x68 x69 </args>
      <args> x70 x71 x72 x73 x74 x75 x76 </args>
      <args> x77 x78 x79 x80 x81 x82 x83 </args>
      <args> x84 x85 x86 x87 x88 x89 x90 </args>
      <args> x91 x92 x93 x94 x95 x96 x97 x98 </args>
      <args> x99 x100 x101 x102 x103 x104 x105 </args>
      <args> x7 x14 x35 x63 x70 x77 x99 </args>
      <args> x0 x28 x36 x49 x56 x64 x84 </args>
      <args> x21 x50 x65 x71 x78 x85 x91 </args>
      <args> x8 x15 x37 x42 x51 x57 x79 </args>
      <args> x1 x9 x43 x66 x80 x86 x100 </args>
      <args> x2 x16 x22 x44 x52 x72 x92 </args>
      <args> x3 x10 x23 x29 x53 x81 x87 x93 </args>
      <args> x4 x24 x38 x54 x73 x88 x94 </args>
      <args> x11 x17 x39 x58 x74 x82 x101 </args>
      <args> x25 x30 x45 x55 x59 x95 x102 </args>
      <args> x18 x31 x60 x75 x83 x89 x96 </args>
      <args> x5 x19 x40 x46 x67 x90 x103 </args>
      <args> x12 x26 x32 x47 x61 x97 x104 </args>
      <args> x6 x13 x33 x41 x68 x98 x105 </args>
      <args> x20 x27 x34 x48 x62 x69 x76 </args>
    </group>
  </constraints>
</instance>

